33D32945 STP File, STP Format Version 1.0

SECTION Comments
Name "edge_n10_d3_s20"
Problem "Euclidean Steiner Tree Problem"
Remark "Generated with STPGenerator. 3 dimensions."
END

SECTION Graph
Nodes 10
END

SECTION Coordinates
DDD 0 0.1488122675 0.1488122675 0.1488122675
DDD 1 0.7401193766 0.7401193766 0.7401193766
DDD 2 0.5311698176 0.5311698176 0.5311698176
DDD 3 0.3798184727 0.3798184727 0.3798184727
DDD 4 0.6551358368 0.6551358368 0.6551358368
DDD 5 0.3903584468 0.3903584468 0.3903584468
DDD 6 0.6938135543 0.6938135543 0.6938135543
DDD 7 0.3702549456 0.3702549456 0.3702549456
DDD 8 0.5785871486 0.5785871486 0.5785871486
DDD 9 0.6617850073 0.6617850073 0.6617850073
END
